nNurses = 125;
hours = 47;
demand = [14 18 27 27 24 8 15 3 26 22 12 26 21 16 23 19 6 14 1 31 10 18 25 7 11 18 15 27 24 12 10 15 24 20 29 25 31 15 18 7 29 22 11 11 0 26 13];
minHours = 13;
maxHours = 15;
maxConsec = 4;
maxPresence = 24;